 lattice_vector   14.80231760     -0.73576178     14.50185823
 lattice_vector   -0.24710687     14.15205689     14.02248918
 lattice_vector   14.55634712     14.38795326     -0.48689193
 atom   -0.25747630     -0.03505589     -0.14376644    Li #1
     initial_moment 1
 atom    7.55605676      6.98759467      7.16024755    Li #2
     initial_moment 1
 atom    0.55974785      1.47620464      1.01024328     N
 atom    3.56514269      2.81838781      3.08237629     C
 atom    2.16926421      2.75476786      2.46482269     C
 atom    2.00445745      3.64706654      1.83568693     H
 atom    1.40942761      2.79976105      3.26474413     H
 atom    1.90990067      1.50838789      1.61855715     C
 atom    2.02620698      0.59916681      2.22934628     H
 atom    2.64783402      1.43649316      0.80431485     H
 atom   -0.13715747      1.57484219      1.76331990     H #2
 atom    0.44510426      2.32039550      0.43351541     H #2
 atom    3.78050190      4.08045516      3.92138074     C
 atom    4.32677775      2.77670522      2.28474673     H
 atom    3.73447934      1.92829673      3.71266999     H
 atom    6.76582607      5.45352406      6.00112860     N
 atom    5.17484688      4.14917146      4.54161797     C
 atom    3.01777893      4.12222607      4.71796486     H
 atom    3.61007175      4.96997936      3.29058984     H
 atom    5.42127916      5.40196856      5.38238506     C
 atom    5.93709026      4.10346781      3.74423086     H
 atom    5.34105409      3.25989378      5.17437562     H
 atom    4.67686255      5.47312341      6.19046582     H
 atom    5.30001504      6.30591690      4.76498718     H
 atom    7.47047115      5.35657040      5.25534590     H #1
 atom    6.88481327      4.61602475      6.58690070     H #1
 atom    8.31069057      6.09310824      8.91780951     N
 atom   10.71547536      3.26174330     10.07646553     C
 atom    9.83020218      4.50341656     10.18646365     C
 atom   10.42980967      5.35709255     10.54654960     H
 atom    9.04608055      4.33658276     10.94492053     H
 atom    9.17411323      4.88841173      8.86013368     C
 atom    8.56457218      4.05052152      8.48504629     H
 atom    9.95302557      5.06934485      8.10175537     H
 atom    7.55003432      5.92221506      9.58982369     H #1
 atom    8.86005142      6.86278655      9.33275335     H #1
 atom   11.40759706      2.90494091     11.39222403     C
 atom   11.47936154      3.41941336      9.29559799     H
 atom   10.10744758      2.40475068      9.73909180     H
 atom   13.84766675      0.11455198     12.57036709     N
 atom   12.30413067      1.67136541     11.28540087     C
 atom   10.64392067      2.74127956     12.17200317     H
 atom   12.00862554      3.76606275     11.73170813     H
 atom   12.96613822      1.30612162     12.61439181     C
 atom   13.08341862      1.84191747     10.52303124     H
 atom   11.71340835      0.80818983     10.93339828     H
 atom   12.18888115      1.12047167     13.37319525     H
 atom   13.56257434      2.15574041     12.98355992     H
 atom   14.61798342      0.29718950     11.91310794     H #2
 atom   13.31611213     -0.66265104     12.14639875     H #2
 atom    6.58424013      8.69177324      7.88974065     N
 atom    3.59852970      9.90688932     10.07272968     C
 atom    4.97773024      9.91784312      9.41335918     C
 atom    5.75680789     10.00262422     10.19155479     H
 atom    5.07812441     10.81640302      8.78060419     H
 atom    5.26771574      8.67452865      8.57159885     C
 atom    4.49286238      8.53965237      7.80136200     H
 atom    5.22976464      7.77753399      9.21120202     H
 atom    6.58892141      9.45523421      7.20259298     H #1
 atom    7.30424757      8.96557905      8.57800282     H #1
 atom    3.35952003     11.13108612     10.95907899     C
 atom    3.48235164      8.99080846     10.67745719     H
 atom    2.81723637      9.86041942      9.29463788     H
 atom    0.43153788     12.37955005     13.19341956     N
 atom    1.99067915     11.12573699     11.63872059     C
 atom    3.46718106     12.04578231     10.35076826     H
 atom    4.14994800     11.18215637     11.72770455     H
 atom    1.72894236     12.37772971     12.47710570     C
 atom    1.89705929     10.23183765     12.27873861     H
 atom    1.19635127     11.04163589     10.87609636     H
 atom    1.75869992     13.26848669     11.82835796     H
 atom    2.52456632     12.51389041     13.22544817     H
 atom    0.44152299     11.63048826     13.89586323     H #2
 atom   -0.30913984     12.09964039     12.53008725     H #2
 atom    9.23868971      7.73457493      6.14444547     N
 atom   10.21933428     10.44571883      3.52861754     C
 atom   10.40882716      9.30443630      4.52868296     C
 atom   11.07012604      9.63616621      5.34755347     H
 atom   10.92432522      8.46058647      4.03821896     H
 atom    9.09379826      8.80634665      5.12960412     C
 atom    8.42967421      8.43278894      4.33405015     H
 atom    8.56676360      9.64845633      5.60710971     H
 atom    9.75268671      6.94930855      5.72045842     H #1
 atom    9.85533755      8.07925585      6.89719865     H #1
 atom   11.54092257     10.96064422      2.95648291     C
 atom    9.68572241     11.27935375      4.01708427     H
 atom    9.56958041     10.11017250      2.70196317     H
 atom   12.57513893     13.67624286      0.37007412     N
 atom   11.36216113     12.10881300      1.96269422     C
 atom   12.07172778     10.12746973      2.46413650     H
 atom   12.19260492     11.28863839      3.78470336     H
 atom   12.68894361     12.59497038      1.37806092     C
 atom   10.85026150     12.95334192      2.45530084     H
 atom   10.70412352     11.78796883      1.13697958     H
 atom   13.20848372     11.74860727      0.90011525     H
 atom   13.34983183     12.95097068      2.18422419     H
 atom   12.08311603     14.47387372      0.79659662     H #2
 atom   11.95227954     13.35247373     -0.38664783     H #2
