 lattice_vector   20.82272124     -0.73597009     20.55790222
 lattice_vector   -0.21844026     20.20565506     20.03884366
 lattice_vector   20.57378528     20.47466455     -0.48825856
 atom   -0.24395604     -0.01459662     -0.13334530     Li
     initial_moment 1
 atom   10.55604963     10.01813725     10.17755450     Li
     initial_moment -1
 atom    9.92616128      7.65148920      9.57513075     H #1
 atom   10.47595076      8.41241457      8.23989737     H #1
 atom   10.52758763      8.93104336     12.58500641     H #1
 atom   11.82248829      9.90276962     12.38277714     H #1
 atom    9.61964093     12.47413964     10.17708505     H #1
 atom   10.37362879     12.04851822     11.55303767     H #1
 atom   12.74595923      9.95737614      8.75719822     H #1
 atom   12.87518534     11.06489369      9.95154903     H #1
 atom   18.00021642     19.43087045     -0.39291709     H #2
 atom   18.13677934     20.52967977      0.80908511     H #2
 atom   -0.27450418     18.14560334     18.55269541     H #2
 atom    0.49129984     17.73292089     19.92583715     H #2
 atom   19.34047219     -0.63343913     18.20511047     H #2
 atom   20.63053051      0.34713037     18.01463406     H #2
 atom   -0.16957759      1.58865742      1.80553232     H #2
 atom    0.37795946      2.35085283      0.47000590     H #2
 atom    0.53395377      1.51944276      1.05504684     N
 atom    9.77455843      8.48541960      8.99137362     N
 atom    8.42632489      8.38944801      8.38251686     C
 atom    3.48930938      2.98202600      3.13038916     C
 atom    2.08833165      2.87506559      2.52400769     C
 atom    1.88457899      3.76852141      1.90817730     H
 atom    1.33475245      2.88232152      3.33115870     H
 atom    1.88035603      1.62450733      1.66652155     C
 atom    2.04639661      0.71997996      2.27234580     H
 atom    2.62001076      1.59657051      0.85122633     H
 atom    3.66964569      4.23350346      3.99367732     C
 atom    4.23990569      2.98326103      2.32121637     H
 atom    3.69742474      2.08416416      3.73763167     H
 atom    6.63293237      5.78266687      6.05517718     C
 atom    5.06868668      4.37943221      4.59549139     C
 atom    2.92290567      4.22194146      4.80651911     H
 atom    3.44031423      5.12654931      3.38663849     H
 atom    5.23402477      5.63696679      5.45340811     C
 atom    5.81648963      4.39191119      3.78323029     H
 atom    5.29944997      3.48902760      5.20636748     H
 atom    4.48663827      5.62475960      6.26610292     H
 atom    5.00396163      6.52775475      4.84280220     H
 atom    6.81246343      7.03422063      6.91827637     C
 atom    7.38018631      5.79433107      5.24284047     H
 atom    6.86250097      4.88988094      6.66244847     H
 atom    8.21279532      7.14023237      7.52511339     C
 atom    6.06130277      7.03329453      7.72667343     H
 atom    6.60481621      7.93188292      6.31086000     H
 atom    8.96647467      7.13084960      6.71839714     H
 atom    8.41521070      6.24694496      8.14142003     H
 atom    8.26533292      9.29564723      7.77751742     H
 atom    7.68822836      8.42132882      9.19879577     H
 atom   11.31645826      9.11318452     11.94965256     N
 atom   19.84040668      0.15551435     18.64566445     N
 atom   18.93861437      1.33528264     18.63776726     C
 atom   13.70805002      6.35062080     13.30510971     C
 atom   12.79671625      7.57991810     13.33701294     C
 atom   13.36179849      8.44967480     13.71367162     H
 atom   11.97201861      7.41625147     14.05187400     H
 atom   12.21162945      7.92825773     11.96572690     C
 atom   11.64221981      7.07072878     11.57268660     H
 atom   13.02968156      8.11350676     11.25102981     H
 atom   14.34743273      6.03106500     14.65874987     C
 atom   14.50359109      6.50688219     12.55615486     H
 atom   13.13273693      5.47503590     12.95788391     H
 atom   16.77713590      3.21799684     15.95307428     C
 atom   15.24022363      4.78809522     14.63073394     C
 atom   13.55391028      5.89537248     15.41403707     H
 atom   14.93831294      6.90106860     14.99419716     H
 atom   15.88005764      4.45788033     15.98147784     C
 atom   16.03406358      4.92903716     13.87635446     H
 atom   14.64548203      3.92358147     14.28697120     H
 atom   15.08653162      4.31412943     16.73564509     H
 atom   16.47244117      5.32380816     16.32580476     H
 atom   17.42405663      2.90523739     17.30491155     C
 atom   17.56672243      3.35471430     15.19387700     H
 atom   16.18853265      2.34455392     15.62269455     H
 atom   18.34532471      1.68361130     17.27037202     C
 atom   16.63265491      2.74359273     18.05691249     H
 atom   17.99316343      3.78601231     17.64877823     H
 atom   19.16646139      1.85442928     16.55349029     H
 atom   17.78656271      0.80991621     16.89419803     H
 atom   19.50504862      2.19418268     19.03146038     H
 atom   18.12560527      1.14240203     19.35597355     H
 atom    9.62229159     11.75374997     10.90869281     N
 atom    0.47779016     18.45008457     19.19152411     N
 atom    1.76442527     18.39952762     18.45622958     C
 atom    6.73941436     13.13885819     13.12582249     C
 atom    8.10509126     13.09569525     12.43830046     C
 atom    8.90555790     13.18790011     13.19335227     H
 atom    8.21234877     13.96791792     11.77119656     H
 atom    8.33156206     11.81283175     11.63608052     C
 atom    7.52546698     11.67673354     10.89911166     H
 atom    8.28272280     10.94419039     12.31231249     H
 atom    6.54124495     14.37483035     14.00541068     C
 atom    6.60787827     12.23068077     13.73890079     H
 atom    5.94499295     13.10576203     12.36046634     H
 atom    3.53441382     15.83641925     16.07009051     C
 atom    5.13667548     14.48054214     14.60208020     C
 atom    6.75318332     15.28184186     13.41317228     H
 atom    7.28706233     14.36471784     14.81911191     H
 atom    4.93528624     15.72683213     15.46602645     C
 atom    4.92602539     13.58009496     15.20529783     H
 atom    4.39435613     14.47827246     13.78454628     H
 atom    5.14429770     16.62670127     14.86137341     H
 atom    5.68077687     15.72895685     16.28071309     H
 atom    3.34878329     17.07267552     16.95257592     C
 atom    3.32184579     14.92985422     16.66275970     H
 atom    2.78303457     15.85146406     15.26162902     H
 atom    1.99203307     17.11559093     17.65666382     C
 atom    3.47387373     17.98069289     16.33817477     H
 atom    4.15308765     17.10474451     17.70738852     H
 atom    1.89633062     16.24623312     18.32886439     H
 atom    1.18333283     17.01577086     16.91169526     H
 atom    2.57394307     18.54412876     19.18773535     H
 atom    1.80159794     19.26683331     17.77775657     H
 atom   12.26454231     10.76639715      9.17442183     N
 atom   18.61565981     19.72403011      0.38236810     N
 atom   18.66289363     18.62691664      1.38096321     C
 atom   13.49769520     13.40928492      6.58957386     C
 atom   13.58462770     12.24770107      7.58318666     C
 atom   14.26336710     12.51758685      8.41037234     H
 atom   14.03253478     11.36656442      7.09196065     H
 atom   12.22415942     11.85616918      8.16749166     C
 atom   11.54229158     11.54601626      7.35992253     H
 atom   11.76309793     12.73503115      8.64713175     H
 atom   14.85465038     13.83060223      6.01815398     C
 atom   13.03038874     14.27639834      7.08776263     H
 atom   12.82215364     13.13503000      5.76088450     H
 atom   16.03472963     16.63318215      3.51586125     C
 atom   14.76757340     15.01352747      5.04941699     C
 atom   15.31824201     12.96994584      5.50540361     H
 atom   15.53323137     14.08854379      6.84976459     H
 atom   16.12177402     15.44771836      4.48120583     C
 atom   14.29836338     15.86971766      5.56530512     H
 atom   14.09020907     14.75276967      4.21727032     H
 atom   16.59093690     14.59318219      3.96265448     H
 atom   16.80000709     15.70701905      5.31306106     H
 atom   17.39233814     17.05922655      2.94978048     C
 atom   15.56809239     17.49133681      4.02988646     H
 atom   15.35893024     16.37720965      2.68149621     H
 atom   17.30491859     18.22770525      1.96481645     C
 atom   17.86115587     16.19612421      2.44633912     H
 atom   18.06606745     17.32810039      3.78156448     H
 atom   16.85600492     19.10447164      2.46247812     H
 atom   16.62596171     17.96338646      1.13629046     H
 atom   19.34603030     18.93353315      2.18870248     H
 atom   19.12542488     17.75334416      0.89352416     H
