 lattice_vector   10.85775034      0.24320592     10.33300157
 lattice_vector    0.31420442     10.00697408     10.24530920
 lattice_vector   10.76883597      9.99751657      0.33373690
 atom   -0.19231339     -0.24383869     -0.13105352     Li
 atom    5.22832396      4.76260493      5.05881910     Li
 atom    0.15383002      0.39556187      2.31693359     H #1
 atom    1.61978881      1.79605145      3.81511981     H
 atom    0.84971700      0.40367416      1.55973205     N
 atom    2.35454618      1.82967321      2.99199068     C
 atom    0.92939494      2.50251225      1.48906824     H
 atom    1.62502889      1.66638323      1.65733382     C
 atom    3.90586248      3.22403994      4.40270254     N
 atom    1.48164523     -0.37754309      1.78157654     H #1
 atom    3.17712462      3.11499345      3.11575591     C
 atom    3.02878840      0.96740441      3.13615152     H
 atom    2.52908667      3.99935393      3.01721566     H
 atom    2.34639321      1.68440302      0.82578908     H
 atom    3.91947068      3.17230543      2.30403424     H
 atom    3.21498083      3.16170309      5.16605012     H #2
 atom    4.48740921      2.37678392      4.50524651     H #2
 atom    5.18247979      4.00851628      7.58385742     H #2
 atom    6.77936158      2.83190110      9.30919188     H
 atom    5.80488467      3.72967475      6.81362796     N
 atom    7.35779078      2.55599902      8.41142119     C
 atom    7.49386293      4.62071591      7.69901603     H
 atom    7.19328417      3.62854912      7.33171886     C
 atom    8.93029438      1.06919734      9.69158526     N
 atom    5.50151879      2.77167238      6.58339430     H #2
 atom    8.80768704      2.24868087      8.79797433     C
 atom    6.91017622      1.62114052      8.03030848     H
 atom    9.28651070      3.10832514      9.29018244     H
 atom    7.84757087      3.39398958      6.47698736     H
 atom    9.39228339      2.03843206      7.88793614     H
 atom    8.40028097      1.25503654     10.55402936     H #1
 atom    8.41974289      0.29224313      9.24029191     H #1
 atom    4.35932926      7.28477139      4.85671914     H #2
 atom    3.02300116      8.91691671      6.32864269     H
 atom    4.04197515      6.47004782      5.39650049     N
 atom    2.65255623      8.01217345      6.83951130     C
 atom    4.64760252      7.24178855      7.25690543     H
 atom    3.71453384      6.91234067      6.77480848     C
 atom    1.14354024      9.38434499      8.32794155     N
 atom    3.16454143      6.18126747      4.94183897     H #2
 atom    2.22208364      8.36820627      8.26412260     C
 atom    1.76166000      7.67807669      6.27953383     H
 atom    3.07545297      8.74035266      8.85109965     H
 atom    3.36529556      6.02813161      7.33273105     H
 atom    1.86181738      7.46205854      8.77834838     H
 atom    1.47683939     10.24481618      7.87785095     H #1
 atom    0.36428491      9.06415691      7.73188133     H #1
 atom    7.26458173      4.17797589      3.53629954     H #2
 atom    9.01945053      5.48962401      2.06625986     H
 atom    6.63828343      4.99344752      3.52275430     N
 atom    8.27831073      6.30594609      2.08937947     C
 atom    8.09637582      6.31181390      4.25747157     H
 atom    7.44653749      6.22694493      3.37303191     C
 atom    9.73839226      7.84630662      0.68419055     N
 atom    6.07139149      4.87093250      2.67392880     H #2
 atom    8.98511761      7.65780910      1.94635571     C
 atom    7.61717039      6.15364852      1.21881207     H
 atom    9.68613927      7.80899419      2.78221927     H
 atom    6.75453754      7.08381686      3.41235199     H
 atom    8.23875742      8.46633606      2.01341812     H
 atom   10.45614019      7.11343263      0.61323283     H #1
 atom    9.10160924      7.66257839     -0.10711617     H #1
