  lattice_vector         7.78222457        1.37321353        6.63356995
  lattice_vector        -1.63756888        5.17626804        5.11367113
  lattice_vector         7.81411584        6.58899431        1.35035955

            atom        -0.27818616       -0.30935870       -0.14885932  Li
            atom         3.20878912        2.96059745        3.11184166  Li
            atom         0.01308336       -0.41476239        2.49884022  H
            atom         1.58842990        0.98551861        3.95420006  H
            atom         0.69478087       -0.33349576        1.73208382  N
            atom         2.22121528        1.08842479        3.14963431  N
            atom         0.75684495        1.74865260        1.80550403  H
            atom         1.46099667        0.90965065        1.90387540  C
            atom         1.32250595       -1.14045504        1.84662082  H
            atom         2.89779685        0.31842917        3.24202564  H
            atom         2.17034595        0.99639460        1.06796943  H
            atom         4.44367121        4.32099084        5.07474472  H
            atom         6.38019298        3.48175111        6.52391349  H
            atom         4.10047775        3.35467785        4.99245928  N
            atom         5.97988266        2.53560257        6.46239771  N
            atom         5.92388973        2.52700243        4.37903863  H
            atom         5.21449188        2.42039972        5.21250684  C
            atom         3.41896095        3.24747713        5.75620527  H
            atom         5.33921729        2.46458214        7.26420149  H
            atom         4.80801543        1.40049610        5.14911411  H
            atom         2.17893631        5.39624487        2.74340197  H
            atom        -0.10491288        6.24958587        3.52789711  H
            atom         1.77239156        4.45387177        2.66627640  N
            atom        -0.46613120        5.28757770        3.47765773  N
            atom         1.06057515        4.42992056        4.62557800  H
            atom         0.65011689        4.33944436        3.60940406  C
            atom         1.41634711        4.39512750        1.70283959  H
            atom        -0.86720069        5.20224995        2.53367276  H
            atom         0.23422262        3.32467296        3.52839177  H
            atom         5.37722144        2.14763784        1.73632054  H
            atom         7.31118398        3.63278098        0.94189706  H
            atom         4.74215413        2.95232779        1.64933713  N
            atom         6.63541503        4.39962016        0.82132221  N
            atom         5.91570622        4.27348697        2.77324727  H
            atom         5.51472841        4.19893973        1.75195437  C
            atom         4.34798634        2.87978477        0.70142225  H
            atom         6.29719241        4.30761414       -0.14584577  H
            atom         4.81121154        5.03525323        1.62998202  H
