# Cell Parameters Cartesian 
 lattice_vector   12.29448422      1.02887394     11.38034884   
 lattice_vector    0.67915210     12.32425685     11.72573507   
 lattice_vector   12.96639856     12.66243022      0.32680626   
# Cartesian Geometry 
 atom    0.12903702     -0.01388409      0.27670344   Li    
 atom    6.35596420      6.51777695      5.58151540   Li    
 atom    0.48408563      1.29029132      2.47598932   H #1  
 atom    2.00124728      2.84654769      3.75141390   H     
 atom    4.74947339      6.23831536      3.61041804   H #2  
 atom    1.22379183      1.04363038      1.80085623   N     
 atom    3.56075836      4.55405094      4.89817428   H     
 atom    2.79266622      2.63756989      3.01139726   C     
 atom    5.26122004      5.46025694      4.05735860   N     
 atom    1.57553440      3.04425347      1.26505448   H     
 atom    2.14392140      2.20345819      1.69316190   C     
 atom    4.34108783      4.30043458      4.16505641   C     
 atom    1.73552769      0.26557243      2.24778730   H #1  
 atom    3.69234468      3.86631542      2.84682380   C     
 atom    3.37638056      1.79396825      3.41891372   H     
 atom    6.00091296      5.21360323      3.38222074   H #2  
 atom    3.10862509      4.70991382      2.43930331   H     
 atom    4.90948029      3.45963664      4.59316189   H     
 atom    2.92425284      1.94983487      0.96004409   H     
 atom    4.48375852      3.65733409      2.10680436   H     
 atom    6.34852222      5.07201593      7.74011866   H #2  
 atom    7.98080771      3.81701170      9.24072292   H     
 atom   11.97054952      3.31777252     10.80949936   H #1  
 atom    7.00598918      5.07897486      6.95171510   N     
 atom    9.70924486      2.54006461     10.62185352   H     
 atom    8.66496944      3.79283148      8.37484689   C     
 atom   11.77352964      2.45375143     10.28679873   N     
 atom    8.59054567      5.93465498      8.03239816   H     
 atom    8.38740260      5.00328905      7.48093072   C     
 atom   10.39207774      2.52948840      9.75766923   C     
 atom    6.80895019      4.21502162      6.42909697   H #2  
 atom   10.11452819      3.73992774      8.86372084   C     
 atom    8.42343794      2.87209264      7.81505656   H     
 atom   12.43094260      2.46074404      9.49849102   H #1  
 atom   10.35605985      4.66066964      9.42351898   H     
 atom   10.18894530      1.59809901      9.20617072   H     
 atom    9.07025124      4.99269910      6.61671355   H     
 atom   10.79868705      3.71575020      7.99785087   H     
 atom    5.61633155      8.93372634      6.06137971   H #2  
 atom    4.27740375     10.30922036      7.74630722   H     
 atom    2.85777795     10.81413281     11.82022106   H #1  
 atom    5.15005302      8.06440382      6.35374033   N     
 atom    2.91793871     11.57166796      9.51426293   H     
 atom    3.78668301      9.37031259      8.05544587   C     
 atom    2.01415747     10.76379173     11.23023141   N     
 atom    5.64144403      8.29601173      8.38151630   H     
 atom    4.73129320      8.19898078      7.76942676   C     
 atom    2.43283822     10.62915475      9.81453105   C     
 atom    4.30633691      8.01402090      5.76372590   H #2  
 atom    3.37748497      9.45784688      9.52852286   C     
 atom    2.88710843      9.26554612      7.42492553   H     
 atom    1.54780151      9.89439216     11.52259719   H #1  
 atom    4.27705281      9.56260420     10.15904372   H     
 atom    1.52272358     10.53215001      9.20244569   H     
 atom    4.24622748      7.25649346      8.06969407   H     
 atom    2.88675117      8.51893998      9.83766251   H     
 atom    8.30458902      6.53490473      3.89383519   H #2  
 atom    9.91935480      8.12183227      2.63196589   H     
 atom   12.35106254     11.63950079      2.77133581   H #1  
 atom    7.74180468      7.34286595      4.20100903   N     
 atom   11.40103368      9.81337636      1.44797960   H     
 atom    9.30093944      8.95135925      3.01601172   C     
 atom   11.70960905     11.82344888      1.98401943   N     
 atom    9.40523782      8.27901518      5.08015792   H     
 atom    8.63911499      8.51747742      4.32720162   C     
 atom   10.81229366     10.64883698      1.85782486   C     
 atom    7.10035460      7.52681601      3.41368024   H #2  
 atom   10.15047323     10.21495628      3.16901779   C     
 atom    8.51432321      9.12024001      2.26039828   H     
 atom   11.14682258     12.63141498      2.29118974   H #1  
 atom   10.93709140     10.04608022      3.92462859   H     
 atom   10.04617424     10.88730027      1.10486859   H     
 atom    8.05037754      9.35293920      4.73704851   H     
 atom    9.53206119     11.04448774      3.55306143   H     
