 lattice_vector   12.41142724      1.03207472     11.24649221
 lattice_vector    0.77464944     12.22242341     11.50506912
 lattice_vector   13.13969145     12.69680438      0.27048316
 atom    0.12671658      0.00400186      0.31561076     Li
     initial_moment 1
 atom    6.45472586      6.48381845      5.43989904     Li
     initial_moment -1
 atom    0.53179741      1.32773374      2.49633186     H #1
 atom    2.01401773      2.90320619      3.67109817     H
 atom    4.83222155      6.22180645      3.48759545     H #2
 atom    1.24462485      1.04177492      1.80694279     N
 atom    3.60121318      4.62382158      4.81252329     H
 atom    2.82194320      2.64617138      2.96506990     C
 atom    5.33681965      5.44604480      3.94856589     N
 atom    1.65229801      3.00513270      1.17453532     H
 atom    2.19388909      2.17219276      1.65008608     C
 atom    4.38755371      4.31562542      4.10542383     C
 atom    1.74922067      0.26601284      2.26791215     H #1
 atom    3.75950172      3.84164785      2.79043870     C
 atom    3.36927823      1.80362754      3.41950154     H
 atom    6.04964896      5.16008493      3.25918099     H #2
 atom    3.21216651      4.68419205      2.33600827     H
 atom    4.92914458      3.48268589      4.58097446     H
 atom    2.98022932      1.86399570      0.94298560     H
 atom    4.56742750      3.58461458      2.08441041     H
 atom    6.40052801      4.98451023      7.63660469     H #2
 atom    8.08767619      3.74814093      9.12342777     H
 atom   12.11381706      3.35918268     10.69217426     H #1
 atom    7.05757243      5.01874693      6.84797297     N
 atom    9.87222293      2.53458620     10.50096642     H
 atom    8.77006810      3.76130417      8.25601985     C
 atom   11.93530567      2.50116911     10.15404840     N
 atom    8.62490962      5.89998762      7.92780981     H
 atom    8.44386217      4.96865105      7.37038671     C
 atom   10.54900867      2.55123900      9.63160628     C
 atom    6.87905636      4.16069830      6.30981408     H #2
 atom   10.22280735      3.75859749      8.74598328     C
 atom    8.56827655      2.83675958      7.68890287     H
 atom   12.59235276      2.53538784      9.36539082     H #1
 atom   10.42459773      4.68314016      9.31309581     H
 atom   10.36795988      1.61991757      9.07419729     H
 atom    9.12065107      4.98531617      6.50104063     H
 atom   10.90519927      3.77175698      7.87857197     H
 atom    5.68209690      8.91260339      5.87353428     H #2
 atom    4.38002723     10.26768477      7.60670504     H
 atom    2.96958876     10.73011203     11.69569236     H #1
 atom    5.22545588      8.03737367      6.16076747     N
 atom    3.04405759     11.50272489      9.40760443     H
 atom    3.87939559      9.32695294      7.89244375     C
 atom    2.13052870     10.67281151     11.09980061     N
 atom    5.71979699      8.21842814      8.18938795     H
 atom    4.80779557      8.15099487      7.57627663     C
 atom    2.54832942     10.55928953      9.68431647     C
 atom    4.38653775      7.98012931      5.56491162     H #2
 atom    3.47667708      9.38328903      9.36814071     C
 atom    2.97710868      9.24958356      7.26215795     H
 atom    1.67404032      9.79769260     11.38704353     H #1
 atom    4.37897987      9.46066360      9.99842507     H
 atom    1.63627198     10.49181468      9.07118840     H
 atom    4.31201986      7.20751202      7.85299743     H
 atom    2.97605582      8.44256280      9.65387271     H
 atom    8.35805183      6.56006983      3.67873464     H #2
 atom   10.01106977      8.14380631      2.50757787     H
 atom   12.56743453     11.59832535      2.73517964     H #1
 atom    7.81779133      7.35744085      4.04769479     N
 atom   11.57537642      9.83803244      1.39279776     H
 atom    9.41475195      8.97698042      2.91581845     C
 atom   11.90334069     11.82719898      1.97829813     N
 atom    9.48718394      8.24824490      4.96475840     H
 atom    8.73214534      8.51582746      4.20976385     C
 atom   10.98898705     10.66881260      1.81622876     C
 atom    7.15369638      7.58631615      3.29081344     H #2
 atom   10.30638064     10.20765945      3.11017371     C
 atom    8.63640859      9.19344474      2.16370921     H
 atom   11.36308155     12.62456888      2.34726178     H #1
 atom   11.08472357      9.99119715      3.86228441     H
 atom   10.23394912     10.93639550      1.06123384     H
 atom    8.14575889      9.34660909      4.63319551     H
 atom    9.71006262     11.04083368      3.51841305     H
