 lattice_vector   10.24170937      1.78172645      6.48719415
 lattice_vector    1.85458805      7.55741731      6.49586835
 lattice_vector   11.58207997      8.89631907      0.30959080
 atom    0.11075265      0.11054127      1.16862573     Li
 atom    5.90211182      4.50805643      2.19115660     Li
 atom    1.04179306      1.95638399      2.81237280     H #1
 atom    3.06393588      3.51698576      2.61390137     H
 atom    1.51309939      1.24261484      2.24184752     N
 atom    3.55449420      2.73828614      2.00737907     C
 atom    1.91042839      2.52828187      0.62367709     H
 atom    2.47497441      1.89178250      1.32444601     C
 atom    2.01552709      0.64792548      2.91401515     H #1
 atom    4.51420839      3.39506027      1.09392230     N
 atom    4.12128793      2.10153130      2.70621195     H
 atom    4.01262860      4.00486553      0.43481431     H #2
 atom    2.96371084      1.10964583      0.72094978     H
 atom    4.98059038      2.69001476      0.50918862     H #2
 atom    6.01146327      2.86943759      4.26925444     H #2
 atom    7.52866548      2.61428225      6.20089079     H
 atom    6.73951552      3.15624160      3.60255133     N
 atom    8.36457215      2.76071625      5.49746204     C
 atom    7.65899120      4.66094324      4.76131141     H
 atom    7.90428389      3.66603390      4.35538283     C
 atom    7.00678074      2.29095576      3.11441014     H #2
 atom    9.52031279      3.26817024      6.26470289     N
 atom    8.61619611      1.76923723      5.08689369     H
 atom    9.24185611      4.11969959      6.77041703     H #1
 atom    8.73454518      3.80481947      3.64369914     H
 atom   10.25081796      3.57542056      5.60994932     H #1
 atom    5.11617494      6.88966351      3.12581413     H #2
 atom    3.79976007      7.57802184      5.22114964     H
 atom    4.71881238      5.94320752      3.18201463     N
 atom    3.42480648      6.54224700      5.27108055     C
 atom    5.38662782      5.64296374      5.15228122     H
 atom    4.43604300      5.61411111      4.59433280     C
 atom    3.83523400      6.00511926      2.65891226     H #2
 atom    3.12478151      6.20921426      6.67855487     N
 atom    2.47935085      6.52176800      4.70432912     H
 atom    4.00114704      6.12256489      7.20989400     H #1
 atom    4.06739600      4.57643237      4.65279912     H
 atom    2.70361003      5.27253863      6.72392011     H #1
 atom    8.14549126      4.78827621      0.89435496     H #2
 atom   10.14205024      6.20045996      1.36277638     H
 atom    7.46221254      5.48760535      1.21269974     N
 atom    9.44348842      7.03316663      1.54876117     C
 atom    8.31358782      6.00894486      3.07193973     H
 atom    8.12652727      6.47395515      2.09279257     C
 atom    7.13446230      5.95115763      0.35528975     H #2
 atom   10.11705013      8.00824536      2.43545665     N
 atom    9.25419190      7.50588277      0.57359786     H
 atom   10.45315764      7.53043071      3.28200742     H #1
 atom    7.42140395      7.30321517      2.26913809     H
 atom    9.43584691      8.70049614      2.77336566     H #1
