# Cell Parameters Cartesian 
 lattice_vector   13.18287922      0.08251536     13.65327958   
 lattice_vector    0.27332783     12.76492469     13.46797044   
 lattice_vector   13.12880188     12.90308762      0.13209023   
# Cartesian Geometry 
 atom    0.12997291      0.23659315      0.37303539   Li #1 
 atom    4.38026143      5.89816198      6.97957105   H #1  
 atom    4.63306701      6.86111196      5.68607408   H #1  
 atom    6.51176309      5.47154077      9.35430677   H #1  
 atom    7.83240989      6.43102553      9.33427952   H #1  
 atom    6.51171571      9.37911047      7.23437894   H #1  
 atom    7.16585166      8.74408778      8.58634424   H #1  
 atom    8.74012783      6.05364541      5.41317626   H #1  
 atom    9.23421508      7.03527717      6.62319752   H #1  
 atom    6.79109790      6.72304669      7.08007629   Li #2 
 atom   10.87894432      1.14204444     13.81910882   H #2  
 atom   11.97905463      2.30718016     13.53900888   H #2  
 atom    2.29308914     13.60755000     12.21248652   H #2  
 atom    2.87588286     12.61866787     13.37362640   H #2  
 atom   13.18966282     10.54522444      0.94961489   H #2  
 atom   13.50084656     11.40131890      2.30202649   H #2  
 atom    0.22861499      2.56029458      1.55219517   H #2  
 atom    0.05157700      1.41447893      2.70288090   H #2  
 atom    0.62001371      1.66246210      1.87872087   N     
 atom    3.55011241      3.34156470      3.82831261   C     
 atom    2.12328636      3.06227682      3.35068882   C     
 atom    1.70737923      3.97874260      2.89731145   H     
 atom    1.48412140      2.83342496      4.22053972   H     
 atom    2.00826013      1.92401910      2.33616210   C     
 atom    2.40374803      0.98769749      2.76050493   H     
 atom    2.61763136      2.15424742      1.44731154   H     
 atom    3.59254878      4.53971237      4.77913404   C     
 atom    4.20427503      3.53477383      2.96058137   H     
 atom    3.95873704      2.44909238      4.33214114   H     
 atom    4.98669701      4.87194706      5.30847117   C     
 atom    2.92234949      4.35237125      5.63630999   H     
 atom    3.18724171      5.42682725      4.26162031   H     
 atom    5.02848254      6.05917205      6.19635174   N     
 atom    5.67923166      5.05300733      4.47072435   H     
 atom    5.39135911      4.01802567      5.87407969   H     
 atom    7.35932321      5.67947839      8.80643298   N     
 atom    9.65852644      2.89220793     10.26544082   C     
 atom    8.68055582      4.06929870     10.23345270   C     
 atom    9.15303253      4.93987891     10.72113350   H     
 atom    7.78832168      3.82949215     10.83697438   H     
 atom    8.23863695      4.48507270      8.83075811   C     
 atom    7.70430934      3.66179934      8.33272070   H     
 atom    9.12515442      4.70643378      8.21443487   H     
 atom   10.14225421      2.62351852     11.69114183   C     
 atom   10.52481984      3.11560796      9.61902951   H     
 atom    9.18139887      1.99020825      9.84645929   H     
 atom   11.19630871      1.52504941     11.82841105   C     
 atom    9.28014631      2.37641132     12.33467132   H     
 atom   10.56806090      3.55677656     12.10070102   H     
 atom   11.68577399      1.36974702     13.22124692   N     
 atom   12.06590780      1.75503151     11.19213652   H     
 atom   10.80348066      0.55387854     11.49163221   H     
 atom    6.39550410      8.61580592      7.91224928   N     
 atom    3.63076540     10.23787677     10.11743438   C     
 atom    4.97928031     10.10283219      9.40741202   C     
 atom    5.79522543     10.14959385     10.14906180   H     
 atom    5.13181261     10.95586314      8.72493016   H     
 atom    5.10670327      8.79762037      8.62116154   C     
 atom    4.29997022      8.72381860      7.87500016   H     
 atom    4.97589149      7.94262947      9.30549726   H     
 atom    3.55210380     11.47278557     11.01658105   C     
 atom    3.44818745      9.33660266     10.72852884   H     
 atom    2.82014407     10.27051220      9.36940077   H     
 atom    2.20022574     11.60802331     11.71732611   C     
 atom    3.75175556     12.38457453     10.42821223   H     
 atom    4.34619871     11.41791960     11.78148015   H     
 atom    2.11017547     12.71728078     12.69427552   N     
 atom    1.96897083     10.67147111     12.25077087   H     
 atom    1.39907400     11.74844903     10.97513530   H     
 atom    8.50278272      6.92247637      5.90615703   N     
 atom   10.02150731      9.47886273      3.40052433   C     
 atom    9.95988961      8.23300366      4.28709888   C     
 atom   10.73397863      8.30353625      5.07073699   H     
 atom   10.19923721      7.33370119      3.69391510   H     
 atom    8.59737456      8.05760264      4.95845390   C     
 atom    7.80873403      7.93313425      4.20005728   H     
 atom    8.34920402      8.97491082      5.51709892   H     
 atom   11.41743437      9.73553797      2.83069209   C     
 atom    9.70807087     10.35655675      3.99223324   H     
 atom    9.29257850      9.38744170      2.57711965   H     
 atom   11.50187853     11.02915059      2.01976875   C     
 atom   11.73047844      8.88662727      2.19863543   H     
 atom   12.14560084      9.79008914      3.65846810   H     
 atom   12.85434905     11.34494166      1.50124649   N     
 atom   11.17894936     11.87851523      2.64437636   H     
 atom   10.81059241     10.99018249      1.16322057   H     
