#CELL_PARAMETERS angstrom
lattice_vector  17.772074446  -0.237562808  17.327999364
lattice_vector  -0.353842185  17.711560374  17.448280985
lattice_vector  17.450342722  17.267766104   0.086801183
#ATOMIC_POSITIONS angstrom
  atom     0.0620402646        0.0676746514       -0.1141776658    Li      
	    initial_moment   1
  atom     8.7125773684        8.6841237329        8.8307430746    Li     
	    initial_moment  -1
  atom     1.8661969664        1.7600357289        1.7247234929    C      
  atom     1.0227887210        0.5416593650        1.6881481350    N      
  atom     0.2706869106        0.6406648849        2.3818647146    H      
  atom     1.5834632692       -0.2598839798        2.0055920641    H      
  atom     1.2452170334        2.6052106906        1.3858890624    H      
  atom     2.6614300085        1.6368396151        0.9719855043    H      
  atom     2.4807291053        2.0997264546        3.0832894137    C      
  atom     7.7592000359        8.1794163368        7.0299754202    N      
  atom     6.9055006259        6.9686064223        6.9914271233    C      
  atom     8.5105230032        8.0706256684        6.3364749761    H      
  atom     7.2049465371        8.9830447403        6.7074638882    H      
  atom     4.8061453511        5.0152711701        4.3203686733    C      
  atom     6.2912367048        6.6431250142        5.6293506344    C      
  atom     6.1107196646        7.0973427234        7.7438044346    H      
  atom     7.5191829185        6.1175855168        7.3285886587    H      
  atom     5.4414017895        5.3716404546        5.6649129518    C      
  atom     7.1002092207        6.5322048356        4.8864510192    H      
  atom     5.6765822029        7.4962048053        5.2935285490    H      
  atom     4.6473442100        5.4872774622        6.4227573620    H      
  atom     6.0657158400        4.5277441154        6.0064634254    H      
  atom     3.9564925321        3.7444758948        4.3761369536    C      
  atom     5.5978662981        4.8918336289        3.5610558404    H      
  atom     4.1823737162        5.8579792645        3.9749485485    H      
  atom     3.3198551870        3.3788362517        3.0347952782    C      
  atom     3.1648735586        3.8690334092        5.1354172843    H      
  atom     4.5813748674        2.9036115326        4.7241352911    H      
  atom     4.1117182179        3.2645418521        2.2742348313    H      
  atom     2.6871255284        4.2155864167        2.6907852815    H      
  atom     3.1047595608        1.2554605572        3.4242870696    H      
  atom     1.6733014607        2.2104073462        3.8279955064    H      
  atom    10.7221621476        6.7992905764       10.3792797170    C      
  atom     9.4209493480        6.8768603928        9.6705189869    N      
  atom     8.6746452000        6.6365360426       10.3397360419    H      
  atom     9.3920004386        6.1303694320        8.9634074948    H      
  atom    10.8072738314        7.6859828275       11.0289018535    H      
  atom    11.5178503611        6.8903774612        9.6231728624    H      
  atom    10.9385233881        5.5363218553       11.2146379071    C      
  atom    17.1113096700        1.6460954343       16.4125716446    N      
  atom    15.8191259610        1.7098768714       15.6863794471    C      
  atom    17.8623956124        1.9102169306       15.7583187476    H      
  atom    17.1166867719        2.3797868134       17.1334708657    H      
  atom    13.9819318853        4.2210321547       13.3102221928    C      
  atom    15.6002518983        2.9717791215       14.8500758612    C      
  atom    15.0148238738        1.6057811576       16.4315718603    H      
  atom    15.7551264065        0.8240526484       15.0331945879    H      
  atom    14.2212935805        2.9953182024       14.1901196529    C      
  atom    16.3884000359        3.0314427050       14.0790181263    H      
  atom    15.7226260760        3.8652438029       15.4858573701    H      
  atom    13.4458399368        2.9558549003       14.9747543467    H      
  atom    14.0866796422        2.0827315907       13.5840014264    H      
  atom    12.5720374225        4.2687892501       12.7226401849    C      
  atom    14.7194942082        4.2362528282       12.4891526584    H      
  atom    14.1642952259        5.1371107725       13.8988870901    H      
  atom    12.3280818408        5.4997120077       11.8515033697    C      
  atom    11.8348460114        4.2475074212       13.5439226360    H      
  atom    12.3904355190        3.3562545328       12.1281691011    H      
  atom    13.0911592140        5.5383961948       11.0546439420    H      
  atom    12.4772123077        6.4090892207       12.4592573296    H      
  atom    10.7957070022        4.6434736646       10.5819454219    H      
  atom    10.1629383958        5.4861457558       11.9991447754    H      
  atom     6.7411543195       10.6585207866       10.4091981826    C      
  atom     7.5572243836        9.4188128566       10.4317822030    N      
  atom     6.9479958424        8.6460765190       10.7394936657    H      
  atom     8.2551240352        9.5087511342       11.1866847805    H      
  atom     5.9624145144       10.5319211014        9.6409043117    H      
  atom     7.3848892732       11.4847375121       10.0667410469    H      
  atom     6.1049189240       11.0138743818       11.7528924975    C      
  atom     0.8219886802       17.0446272781       15.6981318179    N      
  atom     1.6255952812       15.7967283938       15.7146779489    C      
  atom     1.4355672540       17.8112811833       15.3846428799    H      
  atom     0.1130481248       16.9634797945       14.9529709672    H      
  atom     3.7302090966       13.8409572147       13.0474310446    C      
  atom     2.2454485569       15.4284731546       14.3662237155    C      
  atom     0.9775706975       14.9788065719       16.0689379749    H      
  atom     2.4125609055       15.9216563300       16.4746223281    H      
  atom     3.0983342970       14.1604150688       14.4024134217    C      
  atom     2.8594120944       16.2752981328       14.0144243503    H      
  atom     1.4395679568       15.3067900564       13.6216977996    H      
  atom     2.4807913033       13.3057044273       14.7285702301    H      
  atom     3.8947729544       14.2666620163       15.1591266067    H      
  atom     4.6108799082       12.5945286963       13.0662421935    C      
  atom     4.3297028165       14.7051481879       12.7123577334    H      
  atom     2.9333581182       13.7150492171       12.2939391920    H      
  atom     5.2455189382       12.2768778650       11.7123111659    C      
  atom     4.0134084287       11.7281338414       13.3992925652    H      
  atom     5.4079546872       12.7200108392       13.8196732812    H      
  atom     5.8594782409       13.1337974355       11.3846479340    H      
  atom     4.4520209405       12.1626342825       10.9535249772    H      
  atom     6.9026549125       11.1358256569       12.5063260930    H      
  atom     5.4919173751       10.1615802027       12.0933860725    H      
  atom    10.5559656726       10.3849205943        6.9928471827    C      
  atom    10.1325880286       10.1766835288        8.3977201879    N      
  atom     9.7281869341       11.0520944805        8.7559339751    H      
  atom    10.9665137124       10.0170755466        8.9776598104    H      
  atom     9.6462287768       10.5152434306        6.3845857595    H      
  atom    11.0326142237        9.4532792254        6.6477778180    H      
  atom    11.4972856848       11.5669066306        6.7602598491    C      
  atom    16.0833341150       15.8494340550        0.3807187061    N      
  atom    15.6441412876       15.6125712807        1.7753587016    C      
  atom    16.4881802873       14.9791489686        0.0111670662    H      
  atom    15.2537407683       16.0196904787       -0.2024631882    H      
  atom    13.3244856280       13.0528800102        3.6234347586    C      
  atom    14.7091880318       14.4186635521        1.9669543314    C      
  atom    15.1560945825       16.5339381617        2.1316371464    H      
  atom    16.5463679474       15.4767329940        2.3936003986    H      
  atom    14.2707822441       14.2364994630        3.4200398421    C      
  atom    15.2160307210       13.5045352573        1.6123593677    H      
  atom    13.8215112547       14.5479766613        1.3241508701    H      
  atom    13.7785199273       15.1601028147        3.7708222235    H      
  atom    15.1610429811       14.1054635552        4.0596186593    H      
  atom    12.8667297660       12.8955826993        5.0727789651    C      
  atom    13.8220954565       12.1248387077        3.2924626446    H      
  atom    12.4429236706       13.1750492254        2.9704442208    H      
  atom    11.9181855050       11.7175730191        5.2970088547    C      
  atom    12.3730611821       13.8268731985        5.4007400573    H      
  atom    13.7510290809       12.7763602862        5.7227118847    H      
  atom    12.4032773861       10.7860480895        4.9571100082    H      
  atom    11.0217102556       11.8425184665        4.6648278954    H      
  atom    12.3945450570       11.4452280282        7.3912493521    H      
  atom    11.0039887856       12.4937115502        7.1010579646    H      
