 lattice_vector   13.18213821      0.08255154     13.65231972
 lattice_vector    0.27335959     12.76425471     13.46701598
 lattice_vector   13.12803162     12.90238603      0.13215055

 atom    0.12990625      0.23639164      0.37271606    Li #1
    initial_moment -1
 atom    4.37998144      5.89781437      6.97899818     H #1
 atom    4.63268044      6.86062342      5.68560119     H #1
 atom    6.51158988      5.47144688      9.35349043     H #1
 atom    7.83226620      6.43125529      9.33376584     H #1
 atom    6.51155127      9.37827346      7.23418007     H #1
 atom    7.16592065      8.74329630      8.58616222     H #1
 atom    8.73950276      6.05355965      5.41312674     H #1
 atom    9.23360540      7.03511337      6.62312916     H #1
 atom    6.79060440      6.72264963      7.07949525    Li #2
    initial_moment 1
 atom   10.87844618      1.14210692     13.81793481     H #2
 atom   11.97863864      2.30737286     13.53819665     H #2
 atom    2.29277927     13.60669855     12.21185866     H #2
 atom    2.87556968     12.61791991     13.37274856     H #2
 atom   13.18888660     10.54456804      0.94984587     H #2
 atom   13.49990990     11.40103430      2.30192283     H #2
 atom    0.22835407      2.56043407      1.55184784     H #2
 atom    0.05152333      1.41426688      2.70251114     H #2
 atom    0.61981807      1.66226419      1.87838712     N
 atom    3.55007566      3.34141305      3.82805590     C
 atom    2.12329080      3.06216613      3.35042838     C
 atom    1.70750602      3.97852555      2.89707808     H
 atom    1.48417514      2.83338522      4.22018279     H
 atom    2.00802122      1.92385555      2.33579808     C
 atom    2.40342559      0.98765240      2.76024332     H
 atom    2.61750024      2.15418206      1.44719519     H
 atom    3.59237811      4.53952684      4.77886951     C
 atom    4.20422870      3.53460012      2.96034263     H
 atom    3.95862580      2.44899871      4.33193279     H
 atom    4.98650377      4.87164621      5.30794908     C
 atom    2.92218298      4.35215384      5.63606867     H
 atom    3.18697806      5.42653867      4.26126090     H
 atom    5.02776195      6.05902138      6.19583091     N
 atom    5.67907507      5.05254949      4.47021169     H
 atom    5.39088664      4.01780735      5.87377407     H
 atom    7.35871171      5.67897445      8.80577720     N
 atom    9.65797715      2.89210884     10.26475093     C
 atom    8.68023185      4.06916985     10.23276298     C
 atom    9.15252843      4.93949684     10.72053201     H
 atom    7.78784854      3.82940115     10.83617040     H
 atom    8.23823263      4.48508140      8.83022784     C
 atom    7.70387564      3.66184435      8.33237008     H
 atom    9.12478288      4.70608585      8.21384076     H
 atom   10.14182238      2.62344325     11.69027988     C
 atom   10.52427470      3.11545904      9.61830116     H
 atom    9.18079569      1.99017253      9.84577514     H
 atom   11.19583213      1.52504645     11.82752732     C
 atom    9.27977756      2.37634357     12.33389990     H
 atom   10.56753663      3.55663997     12.09973346     H
 atom   11.68504313      1.36971893     13.22048023     N
 atom   12.06520103      1.75509228     11.19124399     H
 atom   10.80293468      0.55386264     11.49077987     H
 atom    6.39465427      8.61522832      7.91156348     N
 atom    3.63059910     10.23741865     10.11690558     C
 atom    4.97883113     10.10227762      9.40690318     C
 atom    5.79502003     10.14897222     10.14830472     H
 atom    5.13156265     10.95503054      8.72415663     H
 atom    5.10661484      8.79715269      8.62058539     C
 atom    4.29980263      8.72310663      7.87441316     H
 atom    4.97560708      7.94213313      9.30480447     H
 atom    3.55188871     11.47215137     11.01583859     C
 atom    3.44798217      9.33607172     10.72790854     H
 atom    2.81990421     10.27007159      9.36874910     H
 atom    2.20028993     11.60722767     11.71642965     C
 atom    3.75150708     12.38402903     10.42757473     H
 atom    4.34595778     11.41737158     11.78077819     H
 atom    2.11033723     12.71623546     12.69332329     N
 atom    1.96883983     10.67073398     12.24978524     H
 atom    1.39908729     11.74779400     10.97441805     H
 atom    8.50217141      6.92211695      5.90540898     N
 atom   10.02090985      9.47832612      3.40024383     C
 atom    9.95944975      8.23263769      4.28685394     C
 atom   10.73336506      8.30301834      5.07044819     H
 atom   10.19858247      7.33315606      3.69360661     H
 atom    8.59690439      8.05727142      4.95813245     C
 atom    7.80824068      7.93280241      4.19983441     H
 atom    8.34875510      8.97456301      5.51675664     H
 atom   11.41681636      9.73503629      2.83058253     C
 atom    9.70749874     10.35608413      3.99208200     H
 atom    9.29203712      9.38685523      2.57685807     H
 atom   11.50096735     11.02858785      2.01974662     C
 atom   11.72990162      8.88612098      2.19832627     H
 atom   12.14496917      9.78966934      3.65824076     H
 atom   12.85361989     11.34414863      1.50131214     N
 atom   11.17820181     11.87795188      2.64443168     H
 atom   10.80981681     10.98971086      1.16321647     H
