 lattice_vector   12.40811577      1.03763151     11.25245109
 lattice_vector    0.77837160     12.22376152     11.51265438
 lattice_vector   13.13911923     12.69956957      0.27297329
 atom    0.12841188      0.00431734      0.31617488     Li
     initial_moment 1
 atom    6.45291586      6.48598273      5.44299714     Li
     initial_moment 1 
 atom    0.53643002      1.32231124      2.50245695     H #1
 atom    2.01676300      2.89950885      3.67572527     H
 atom    4.82543769      6.22574971      3.49110463     H #2
 atom    1.24794640      1.03906369      1.81075915     N
 atom    3.60348908      4.62209089      4.81679627     H
 atom    2.82383354      2.64580947      2.96718505     C
 atom    5.33331911      5.45066695      3.94900266     N
 atom    1.64745530      3.00518713      1.18065479     H
 atom    2.19332566      2.17334596      1.65320783     C
 atom    4.38826660      4.31704675      4.10638071     C
 atom    1.75594903      0.26483337      2.26831405     H #1
 atom    3.75750657      3.84441078      2.79226298     C
 atom    3.37483275      1.80343024      3.41822248     H
 atom    6.04506779      5.16794341      3.25700381     H #2
 atom    3.20659470      4.68675789      2.34132256     H
 atom    4.93387592      3.48496039      4.57885584     H
 atom    2.97784540      1.86811631      0.94269440     H
 atom    4.56459195      3.59073213      2.08381922     H
 atom    6.40009043      4.99172518      7.64107623     H #2
 atom    8.08607098      3.75511293      9.12893812     H
 atom   12.11372183      3.36723843     10.69380607     H #1
 atom    7.05655858      5.02126582      6.85170276     N
 atom    9.87008965      2.54230341     10.50782228     H
 atom    8.76825064      3.76534225      8.26140797     C
 atom   11.93294529      2.50642335     10.16033787     N
 atom    8.62497576      5.90404141      7.92910354     H
 atom    8.44307211      4.97136075      7.37373082     C
 atom   10.54640568      2.55650911      9.63822752     C
 atom    6.87582499      4.16081236      6.31818803     H #2
 atom   10.22126795      3.76253685      8.75052253     C
 atom    8.56503087      2.83972139      7.69605602     H
 atom   12.58949103      2.53616744      9.37085928     H #1
 atom   10.42448820      4.68814633      9.31592320     H
 atom   10.36453584      1.62381112      9.08289786     H
 atom    9.11941238      4.98556467      6.50415660     H
 atom   10.90342879      3.77275736      7.88307333     H
 atom    5.67987757      8.91652055      5.87660595     H #2
 atom    4.37882733     10.27012866      7.61081417     H
 atom    2.97568939     10.73145592     11.70096586     H #1
 atom    5.22507858      8.04051545      6.16436589     N
 atom    3.04375119     11.50439784      9.41296963     H
 atom    3.88014459      9.32864564      7.89791021     C
 atom    2.13474767     10.67364270     11.10824146     N
 atom    5.72283378      8.22326783      8.19237542     H
 atom    4.80980776      8.15379855      7.58080442     C
 atom    2.55001009     10.56017280      9.69119860     C
 atom    4.38418208      7.98259738      5.57093227     H #2
 atom    3.47959417      9.38535468      9.37429505     C
 atom    2.97700751      9.24961287      7.26907682     H
 atom    1.67978784      9.79728920     11.39547443     H #1
 atom    4.38279256      9.46439761     10.00311138     H
 atom    1.63694074     10.49073949      9.07988373     H
 atom    4.31600271      7.20963711      7.85925790     H
 atom    2.98093253      8.44386266      9.66137215     H
 atom    8.36598039      6.56015879      3.68780721     H #2
 atom   10.01643910      8.14509631      2.51513724     H
 atom   12.56009288     11.60790897      2.74119236     H #1
 atom    7.82168269      7.35701695      4.05164407     N
 atom   11.57781109      9.84105623      1.39910053     H
 atom    9.41664355      8.97783394      2.91972427     C
 atom   11.89917146     11.83299182      1.98104911     N
 atom    9.48609207      8.25468947      4.97080874     H
 atom    8.73215603      8.51838223      4.21328378     C
 atom   10.98822287     10.67127947      1.81927053     C
 atom    7.16016282      7.58193582      3.29123100     H #2
 atom   10.30388339     10.21201915      3.11269749     C
 atom    8.63919477      9.19015806      2.16549025     H
 atom   11.35454110     12.62955083      2.34462338     H #1
 atom   11.08137433      9.99965068      3.86706002     H
 atom   10.23450851     10.93516603      1.06169191     H
 atom    8.14274446      9.34879021      4.63334569     H
 atom    9.70409151     11.04474027      3.51735366     H
