#CELL_PARAMETERS angstrom
lattice_vector    19.283626096   0.087035548  19.574721987
lattice_vector     0.249922243  18.989776023  19.407083519
lattice_vector    19.148470857  19.019892272   0.221264134
#CELL_Coordinates angstrom
atom     0.1069331185      0.2767061415      0.3264086707  Li    
   initial_moment  1
atom     9.7828261222      9.8081627708     10.0765237386  Li  
   initial_moment -1
atom     7.6457264554      9.9656444859      8.7084476327  H #1  
atom     7.3734216769      8.9363494507      9.9443825509  H #1  
atom     9.5292129256      8.5394003781     12.3903582639  H #1  
atom    10.7712965567      9.6026035263     12.3886006086  H #1  
atom     9.2454554131     12.4583254446     10.1244697550  H #1  
atom    10.0661662624     11.9534217208     11.4430145157  H #1  
atom    11.7274139403      9.1281128442      8.3771009054  H #1  
atom    12.2616103132     10.0578192375      9.6122896864  H #1  
atom    19.4792930644     17.5217832762      2.3053956768  H #2  
atom    19.0900608558     16.6960792639      0.9556172511  H #2  
atom     2.7836520685     18.7856165512     19.2323134416  H #2  
atom     2.2632995792     19.7147942270     17.9976390560  H #2  
atom    17.9518048485      2.3650110056     19.5518909508  H #2  
atom    16.8922484245      1.1354859425     19.6725161751  H #2  
atom     0.1051581674      1.4518322522      2.6612384002  H #2  
atom     0.2680785698      2.5844795692      1.4934266065  H #2  
atom     0.6813276118      1.7052331734      1.8437981307  N   
atom     8.0202108045      9.1227781750      9.1665966680  N   
atom     3.5271003910      3.5022511459      3.8106100362  C   
atom     2.1075098235      3.1865684296      3.3334350437  C   
atom     1.6656418996      4.0859659565      2.8693985538  H   
atom     1.4697225268      2.9465559819      4.2012814605  H   
atom     2.0476925442      2.0322363308      2.3281306626  C   
atom     2.4759609345      1.1172110389      2.7665168107  H   
atom     2.6617982150      2.2795740759      1.4476836726  H   
atom     3.5936219124      4.7273565508      4.7267188770  C   
atom     4.1802749769      3.6669047176      2.9359346718  H   
atom     3.9413785950      2.6257615452      4.3386216326  H   
atom     6.4854045039      6.5380170718      6.6812846641  C   
atom     5.0040043508      5.0351454962      5.2323828262  C   
atom     2.9201218846      4.5773043195      5.5888638890  H   
atom     3.2001703596      5.6056981969      4.1866322125  H   
atom     5.0799209733      6.2674903948      6.1360391296  C   
atom     5.6801694557      5.1712632155      4.3702919835  H   
atom     5.3878407286      4.1592129750      5.7831869849  H   
atom     4.3821227246      6.1400785550      6.9816316520  H   
atom     4.7228374802      7.1528991921      5.5814072243  H   
atom     6.5456548651      7.7333547313      7.6358700891  C   
atom     7.1786887867      6.7014352840      5.8377835526  H   
atom     6.8496982402      5.6373146643      7.2050813767  H   
atom     7.9405090153      7.9893232613      8.2132633663  C   
atom     5.8389114975      7.5759490989      8.4696797408  H   
atom     6.2049882757      8.6424317924      7.1110332613  H   
atom     8.6570985383      8.1880960983      7.4010855674  H   
atom     8.3034328375      7.0914040722      8.7370251851  H   
atom    10.3702670515      8.8101378829     11.8617871050  N   
atom    17.7191417892      1.4460848515     19.1440205837  N   
atom    12.8771490625      6.1910808794     13.2959360987  C   
atom    11.8752208128      7.3481767991     13.3018020818  C   
atom    12.3525741759      8.2486843087     13.7254915301  H   
atom    11.0297628612      7.1047329739     13.9683737677  H   
atom    11.3399418353      7.6875944085     11.9079616401  C   
atom    10.8517990491      6.8081790395     11.4610853851  H   
atom    12.1822469763      7.9466808049     11.2464721132  H   
atom    13.4633730977      5.8955317415     14.6782690986  C   
atom    13.6971611111      6.4165018541     12.5919519469  H   
atom    12.3826441290      5.2840198401     12.9072529488  H   
atom    15.8524665925      3.1462787966     16.1673259870  C   
atom    14.4048805290      4.6898374155     14.7030245448  C   
atom    12.6393923612      5.7233164590     15.3921974146  H   
atom    13.9982233976      6.7881292684     15.0469669118  H   
atom    14.9252141308      4.3644464523     16.1033074518  C   
atom    15.2552899093      4.8714352084     14.0230633970  H   
atom    13.8747403659      3.8098109523     14.2998640828  H   
atom    14.0652561019      4.2012222928     16.7767347181  H   
atom    15.4572645130      5.2433290766     16.5066805760  H   
atom    16.2776220848      2.8234387594     17.6019161762  C   
atom    16.7470160880      3.3316057296     15.5475872871  H   
atom    15.3462161407      2.2719541284     15.7226235767  H   
atom    17.3054753581      1.6966770323     17.7387795637  C   
atom    15.3853455231      2.5708575684     18.2008885198  H   
atom    16.7050057591      3.7309412869     18.0650938449  H   
atom    18.2130363033      1.9429989815     17.1651235828  H   
atom    16.9194976337      0.7522400163     17.3267985116  H   
atom     9.2591604176     11.7228244394     10.8428071679  N   
atom     2.0370737535     18.8633241344     18.5282887477  N   
atom     6.5512026163     13.1862015088     13.2361280001  C   
atom     7.8722975931     13.1113785851     12.4663416604  C   
atom     8.7207538534     13.1889284232     13.1679363360  H   
atom     7.9539895689     13.9803955655     11.7920542038  H   
atom     8.0203472497     11.8234346843     11.6543339109  C   
atom     7.1643194266     11.7091901391     10.9706802070  H   
atom     7.9909702643     10.9573070586     12.3366730355  H   
atom     6.4598007770     14.4106068650     14.1495199614  C   
atom     6.4188882526     12.2700984241     13.8372275790  H   
atom     5.7122672428     13.2019628388     12.5188174789  H   
atom     3.5892157406     16.1312739017     16.2090455120  C   
atom     5.0826917899     14.6011557269     14.7883874135  C   
atom     6.7135998047     15.3151308085     13.5694874676  H   
atom     7.2276691835     14.3320337365     14.9383786511  H   
atom     4.9998391689     15.8344997653     15.6909779711  C   
atom     4.8129153575     13.7001605209     15.3660678539  H   
atom     4.3267046893     14.6850639854     13.9883039459  H   
atom     5.3704428120     16.7117316615     15.1332429775  H   
atom     5.6866770344     15.7089556717     16.5459467777  H   
atom     3.5189859857     17.3893861299     17.0806689724  C   
atom     3.2207894162     15.2641677874     16.7842039833  H   
atom     2.9049942277     16.2399400328     15.3498716870  H   
atom     2.1181169755     17.6915645669     17.6210029855  C   
atom     3.8799269258     18.2606141306     16.5075191932  H   
atom     4.2066812766     17.2781642052     17.9371621700  H   
atom     1.7386217526     16.8148305036     18.1704766462  H   
atom     1.4144255265     17.8649464562     16.7923639355  H   
atom    11.5258542068      9.9928950728      8.8936101995  N   
atom    18.7922263176     17.4894131131      1.5374853716  N   
atom    13.1483886871     12.5703239737      6.4655475525  C   
atom    13.0593957262     11.3276735184      7.3546969716  C   
atom    13.8046516687     11.4005692257      8.1655573988  H   
atom    13.3244579702     10.4295407078      6.7709488547  H   
atom    11.6708423144     11.1468873324      7.9728441126  C   
atom    10.9128681551     11.0415466133      7.1810761277  H   
atom    11.4050156446     12.0548735905      8.5377672898  H   
atom    14.5484180324     12.8290757691      5.9042310712  C   
atom    12.8247739085     13.4529375979      7.0440916246  H   
atom    12.4327751195     12.4773841969      5.6303595221  H   
atom    16.0363614673     15.6112402449      3.5562056231  C   
atom    14.6151163792     14.0777573993      5.0226316638  C   
atom    14.8813538514     11.9507110219      5.3246325373  H   
atom    15.2623862716     12.9301991194      6.7398851658  H   
atom    16.0025350365     14.3656851683      4.4461487563  C   
atom    14.2783268418     14.9512079132      5.6076902861  H   
atom    13.8935861532     13.9735473999      4.1934984731  H   
atom    16.3484770379     13.4922230681      3.8667768291  H   
atom    16.7260099812     14.4877247767      5.2707719373  H   
atom    17.4179041448     15.8996060131      2.9640235140  C   
atom    15.7005176468     16.4837658586      4.1427091388  H   
atom    15.3024909979     15.4933642582      2.7401536000  H   
atom    17.4624262602     17.1734538610      2.1159383697  C   
atom    17.7446110347     15.0437675052      2.3483151395  H   
atom    18.1566807706     15.9923223333      3.7788746250  H   
atom    17.1512111824     18.0375747625      2.7248976193  H   
atom    16.7442918669     17.1029778777      1.2840581807  H   


